c Created with the Wolfram Language : www.wolfram.com
c 
p edge 70 471
e 1 6
e 5 10
e 8 11
e 10 11
e 2 12
e 3 12
e 9 12
e 10 12
e 2 13
e 8 13
e 4 14
e 12 14
e 8 15
e 10 15
e 7 16
e 11 16
e 13 16
e 2 17
e 10 17
e 16 17
e 17 18
e 1 19
e 13 19
e 18 19
e 1 20
e 2 20
e 8 20
e 9 20
e 2 21
e 5 21
e 6 21
e 13 21
e 1 22
e 2 22
e 3 22
e 4 22
e 10 22
e 14 22
e 7 23
e 9 23
e 16 23
e 21 23
e 11 24
e 13 24
e 14 24
e 19 24
e 20 24
e 23 24
e 1 25
e 19 25
e 20 25
e 8 26
e 9 26
e 10 26
e 7 27
e 9 27
e 10 27
e 20 27
e 4 28
e 6 28
e 10 28
e 16 28
e 21 28
e 27 28
e 17 29
e 21 29
e 24 29
e 26 29
e 28 29
e 6 30
e 9 30
e 16 30
e 17 30
e 19 30
e 20 30
e 24 30
e 25 30
e 26 30
e 3 31
e 16 31
e 21 31
e 25 31
e 27 31
e 3 32
e 6 32
e 23 32
e 5 33
e 7 33
e 25 33
e 30 33
e 1 34
e 2 34
e 5 34
e 7 34
e 12 34
e 13 34
e 20 34
e 25 34
e 27 34
e 7 35
e 9 35
e 12 35
e 13 35
e 14 35
e 28 35
e 31 35
e 6 36
e 9 36
e 12 36
e 14 36
e 22 36
e 31 36
e 35 36
e 5 37
e 9 37
e 13 37
e 16 37
e 18 37
e 31 37
e 33 37
e 1 38
e 7 38
e 9 38
e 10 38
e 14 38
e 17 38
e 25 38
e 28 38
e 29 38
e 34 38
e 37 38
e 2 39
e 8 39
e 13 39
e 21 39
e 24 39
e 30 39
e 32 39
e 34 39
e 1 40
e 2 40
e 7 40
e 14 40
e 26 40
e 28 40
e 34 40
e 35 40
e 37 40
e 2 41
e 19 41
e 21 41
e 24 41
e 31 41
e 36 41
e 39 41
e 7 42
e 13 42
e 18 42
e 24 42
e 31 42
e 36 42
e 37 42
e 1 43
e 8 43
e 12 43
e 15 43
e 16 43
e 18 43
e 21 43
e 34 43
e 6 44
e 8 44
e 10 44
e 15 44
e 18 44
e 21 44
e 26 44
e 27 44
e 31 44
e 41 44
e 2 45
e 3 45
e 4 45
e 5 45
e 7 45
e 9 45
e 16 45
e 19 45
e 20 45
e 32 45
e 40 45
e 1 46
e 10 46
e 19 46
e 25 46
e 27 46
e 40 46
e 44 46
e 45 46
e 5 47
e 6 47
e 8 47
e 9 47
e 12 47
e 13 47
e 14 47
e 20 47
e 26 47
e 27 47
e 28 47
e 31 47
e 33 47
e 36 47
e 42 47
e 44 47
e 3 48
e 7 48
e 10 48
e 17 48
e 20 48
e 25 48
e 38 48
e 40 48
e 1 49
e 10 49
e 13 49
e 15 49
e 16 49
e 23 49
e 29 49
e 36 49
e 38 49
e 39 49
e 41 49
e 44 49
e 46 49
e 3 50
e 9 50
e 17 50
e 23 50
e 24 50
e 27 50
e 34 50
e 41 50
e 43 50
e 47 50
e 2 51
e 3 51
e 9 51
e 24 51
e 29 51
e 30 51
e 33 51
e 37 51
e 40 51
e 44 51
e 45 51
e 13 52
e 14 52
e 18 52
e 20 52
e 24 52
e 31 52
e 33 52
e 36 52
e 38 52
e 39 52
e 42 52
e 45 52
e 48 52
e 4 53
e 10 53
e 13 53
e 18 53
e 21 53
e 22 53
e 23 53
e 27 53
e 31 53
e 33 53
e 34 53
e 35 53
e 40 53
e 44 53
e 45 53
e 4 54
e 5 54
e 13 54
e 15 54
e 20 54
e 23 54
e 33 54
e 34 54
e 36 54
e 46 54
e 47 54
e 48 54
e 2 55
e 13 55
e 16 55
e 24 55
e 27 55
e 34 55
e 35 55
e 38 55
e 39 55
e 43 55
e 49 55
e 51 55
e 53 55
e 2 56
e 9 56
e 10 56
e 14 56
e 15 56
e 17 56
e 26 56
e 28 56
e 41 56
e 44 56
e 48 56
e 54 56
e 16 57
e 18 57
e 28 57
e 37 57
e 44 57
e 53 57
e 54 57
e 4 58
e 8 58
e 21 58
e 22 58
e 27 58
e 35 58
e 39 58
e 41 58
e 42 58
e 49 58
e 52 58
e 53 58
e 6 59
e 13 59
e 17 59
e 18 59
e 23 59
e 26 59
e 30 59
e 31 59
e 36 59
e 43 59
e 52 59
e 53 59
e 55 59
e 5 60
e 7 60
e 10 60
e 14 60
e 15 60
e 20 60
e 22 60
e 30 60
e 32 60
e 33 60
e 37 60
e 39 60
e 49 60
e 56 60
e 2 61
e 10 61
e 18 61
e 29 61
e 30 61
e 40 61
e 3 62
e 4 62
e 7 62
e 13 62
e 22 62
e 24 62
e 29 62
e 60 62
e 2 63
e 5 63
e 12 63
e 14 63
e 46 63
e 50 63
e 9 64
e 29 64
e 34 64
e 41 64
e 49 64
e 61 64
e 5 65
e 6 65
e 7 65
e 8 65
e 14 65
e 17 65
e 21 65
e 26 65
e 29 65
e 33 65
e 40 65
e 44 65
e 48 65
e 52 65
e 53 65
e 59 65
e 6 66
e 15 66
e 19 66
e 23 66
e 30 66
e 32 66
e 39 66
e 40 66
e 44 66
e 47 66
e 49 66
e 50 66
e 51 66
e 52 66
e 59 66
e 61 66
e 62 66
e 1 67
e 13 67
e 33 67
e 43 67
e 48 67
e 51 67
e 57 67
e 58 67
e 61 67
e 14 68
e 16 68
e 17 68
e 20 68
e 24 68
e 25 68
e 28 68
e 31 68
e 33 68
e 36 68
e 41 68
e 5 69
e 9 69
e 10 69
e 24 69
e 27 69
e 28 69
e 36 69
e 43 69
e 48 69
e 61 69
e 62 69
e 67 69
e 2 70
e 16 70
e 22 70
e 25 70
e 27 70
e 33 70
e 37 70
e 43 70
e 56 70
e 59 70
e 61 70
e 62 70
